words_hard_train/7666.qaiger
aag 115 16 0 1 99
2
4
8
22
38
52
74
104
126
146
150
156
162
166
174
178
231
6 3 5
10 9 3
12 11 4
14 7 13
16 8 4
18 16 3
20 15 19
24 23 5
26 22 4
28 25 27
30 20 29
32 9 5
34 33 17
36 30 35
40 39 5
42 38 4
44 41 43
46 36 45
48 13 27
50 48 43
54 51 53
56 53 5
58 52 4
60 50 59
62 57 60
64 55 63
66 46 64
68 40 52
70 69 5
72 71 61
76 75 5
78 74 4
80 77 79
82 73 81
84 72 80
86 83 85
88 57 61
90 87 89
92 86 88
94 91 93
96 66 95
98 87 4
100 99 93
102 85 79
106 105 5
108 104 4
110 107 109
112 102 111
114 103 110
116 113 115
118 100 117
120 101 116
122 119 121
124 96 123
128 125 126
130 117 4
132 131 121
134 115 109
136 132 134
138 133 135
140 137 139
142 97 122
144 143 125
148 144 146
152 64 150
154 153 67
158 95 156
160 154 159
164 45 162
168 29 166
170 165 169
172 170 37
176 34 175
180 176 179
182 28 167
184 181 183
186 177 178
188 187 21
190 184 189
192 172 191
194 65 151
196 193 195
198 44 163
200 196 199
202 160 201
204 203 97
206 94 157
208 204 207
210 149 209
212 145 147
214 211 213
216 140 214
218 128 217
220 124 127
222 216 220
224 219 223
226 141 215
228 226 221
230 224 229
i0 1 x1[1]
i1 1 x1[7]
i2 1 x1[0]
i3 1 x1[2]
i4 1 x1[3]
i5 1 x1[4]
i6 1 x1[5]
i7 1 x1[6]
i8 2 y1[0]
i9 2 y1[1]
i10 2 y1[3]
i11 2 y1[2]
i12 2 y1[4]
i13 2 y1[5]
i14 2 y1[7]
i15 2 y1[6]
o0 bv[0]
c
simplified
  <
    reverse
      2 y1
    add
      abs
        1 x1
      >> 7
        1 x1
