words_hard_train/7666.qaiger.qdimacs
p cnf 115 298
a 1 2 4 37 11 19 52 26 0
e 3 5 6 7 8 9 10 12 13 14 15 16 17 18 20 21 22 23 24 25 27 28 29 30 31 32 33 34 35 36 38 39 40 41 42 43 44 45 46 47 48 49 50 51 53 54 55 56 57 58 59 60 61 62 63 64 65 66 67 68 69 70 71 72 73 74 75 76 77 78 79 80 81 82 83 84 85 86 87 88 89 90 91 92 93 94 95 96 97 98 99 100 101 102 103 104 105 106 107 108 109 110 111 112 113 114 115 0
1 2 3 0
-1 -3 0
-2 -3 0
4 1 5 0
-4 -5 0
-1 -5 0
5 -2 6 0
-5 -6 0
2 -6 0
3 6 7 0
-3 -7 0
-6 -7 0
-4 -2 8 0
4 -8 0
2 -8 0
-8 1 9 0
8 -9 0
-1 -9 0
7 9 10 0
-7 -10 0
-9 -10 0
11 2 12 0
-11 -12 0
-2 -12 0
-11 -2 13 0
11 -13 0
2 -13 0
12 13 14 0
-12 -14 0
-13 -14 0
-10 14 15 0
10 -15 0
-14 -15 0
4 2 16 0
-4 -16 0
-2 -16 0
16 8 17 0
-16 -17 0
-8 -17 0
-15 17 18 0
15 -18 0
-17 -18 0
19 2 20 0
-19 -20 0
-2 -20 0
-19 -2 21 0
19 -21 0
2 -21 0
20 21 22 0
-20 -22 0
-21 -22 0
-18 22 23 0
18 -23 0
-22 -23 0
6 13 24 0
-6 -24 0
-13 -24 0
-24 21 25 0
24 -25 0
-21 -25 0
25 26 27 0
-25 -27 0
-26 -27 0
26 2 28 0
-26 -28 0
-2 -28 0
-26 -2 29 0
26 -29 0
2 -29 0
-25 29 30 0
25 -30 0
-29 -30 0
28 -30 31 0
-28 -31 0
30 -31 0
27 31 32 0
-27 -32 0
-31 -32 0
-23 -32 33 0
23 -33 0
32 -33 0
-20 -26 34 0
20 -34 0
26 -34 0
34 2 35 0
-34 -35 0
-2 -35 0
35 30 36 0
-35 -36 0
-30 -36 0
37 2 38 0
-37 -38 0
-2 -38 0
-37 -2 39 0
37 -39 0
2 -39 0
38 39 40 0
-38 -40 0
-39 -40 0
36 40 41 0
-36 -41 0
-40 -41 0
-36 -40 42 0
36 -42 0
40 -42 0
41 42 43 0
-41 -43 0
-42 -43 0
28 30 44 0
-28 -44 0
-30 -44 0
43 44 45 0
-43 -45 0
-44 -45 0
-43 -44 46 0
43 -46 0
44 -46 0
45 46 47 0
-45 -47 0
-46 -47 0
-33 47 48 0
33 -48 0
-47 -48 0
43 -2 49 0
-43 -49 0
2 -49 0
49 46 50 0
-49 -50 0
-46 -50 0
42 39 51 0
-42 -51 0
-39 -51 0
52 2 53 0
-52 -53 0
-2 -53 0
-52 -2 54 0
52 -54 0
2 -54 0
53 54 55 0
-53 -55 0
-54 -55 0
-51 55 56 0
51 -56 0
-55 -56 0
51 -55 57 0
-51 -57 0
55 -57 0
56 57 58 0
-56 -58 0
-57 -58 0
-50 58 59 0
50 -59 0
-58 -59 0
50 -58 60 0
-50 -60 0
58 -60 0
59 60 61 0
-59 -61 0
-60 -61 0
-48 61 62 0
48 -62 0
-61 -62 0
62 -63 64 0
-62 -64 0
63 -64 0
58 -2 65 0
-58 -65 0
2 -65 0
65 60 66 0
-65 -66 0
-60 -66 0
57 54 67 0
-57 -67 0
-54 -67 0
-66 -67 68 0
66 -68 0
67 -68 0
66 67 69 0
-66 -69 0
-67 -69 0
68 69 70 0
-68 -70 0
-69 -70 0
48 -61 71 0
-48 -71 0
61 -71 0
71 62 72 0
-71 -72 0
-62 -72 0
-72 -73 74 0
72 -74 0
73 -74 0
-32 -75 76 0
32 -76 0
75 -76 0
76 33 77 0
-76 -77 0
-33 -77 0
47 -78 79 0
-47 -79 0
78 -79 0
-77 79 80 0
77 -80 0
-79 -80 0
22 -81 82 0
-22 -82 0
81 -82 0
14 -83 84 0
-14 -84 0
83 -84 0
82 84 85 0
-82 -85 0
-84 -85 0
-85 18 86 0
85 -86 0
-18 -86 0
-17 87 88 0
17 -88 0
-87 -88 0
-88 89 90 0
88 -90 0
-89 -90 0
-14 83 91 0
14 -91 0
-83 -91 0
90 91 92 0
-90 -92 0
-91 -92 0
88 -89 93 0
-88 -93 0
89 -93 0
93 10 94 0
-93 -94 0
-10 -94 0
-92 94 95 0
92 -95 0
-94 -95 0
-86 95 96 0
86 -96 0
-95 -96 0
32 75 97 0
-32 -97 0
-75 -97 0
96 97 98 0
-96 -98 0
-97 -98 0
-22 81 99 0
22 -99 0
-81 -99 0
-98 99 100 0
98 -100 0
-99 -100 0
-80 100 101 0
80 -101 0
-100 -101 0
101 48 102 0
-101 -102 0
-48 -102 0
-47 78 103 0
47 -103 0
-78 -103 0
-102 103 104 0
102 -104 0
-103 -104 0
74 104 105 0
-74 -105 0
-104 -105 0
72 73 106 0
-72 -106 0
-73 -106 0
105 106 107 0
-105 -107 0
-106 -107 0
-70 -107 108 0
70 -108 0
107 -108 0
-64 108 109 0
64 -109 0
-108 -109 0
-62 63 110 0
62 -110 0
-63 -110 0
-108 -110 111 0
108 -111 0
110 -111 0
109 111 112 0
-109 -112 0
-111 -112 0
70 107 113 0
-70 -113 0
-107 -113 0
-113 110 114 0
113 -114 0
-110 -114 0
-112 114 115 0
112 -115 0
-114 -115 0
-115 0
